120
150
52
53
58
50
47
54
52
53
42
45
45
49
46
49
55
56
50
53
50
52
54
54
55
50
50
50
47
50
60
55
45
50
44
51
54
45
49
59
55
44
47
58
48
46
52
41
40
55
60
50
47
49
54
40
43
49
57
57
51
46
49
49
52
56
45
58
49
54
53
42
51
55
42
44
52
46
43
56
50
58
45
48
58
58
58
53
54
47
47
51
52
51
56
57
53
50
40
57
54
43
43
51
51
44
47
52
46
44
54
50
51
43
53
45
47
54
54
46
49
60
